results/res_prop_muc/res_Cimatti_mathsat_cores/QF_UF/SEQ005_size9.smt.smt2.out

real	0m5.169s
user	0m4.931s
sys	0m0.172s
