results/res_prop_muc/res_Cimatti_mathsat_cores/QF_UF/SEQ005_size9.smt.smt2.res
unsat
( _c0
  _c1
  _c10
  _c1055
  _c1146
  _c1237
  _c1328
  _c139
  _c1419
  _c148
  _c150
  _c1510
  _c1601
  _c169
  _c1692
  _c1703
  _c1713
  _c1723
  _c1733
  _c1743
  _c1753
  _c1763
  _c1773
  _c1775
  _c1804
  _c1824
  _c1834
  _c184
  _c1854
  _c1857
  _c186
  _c1885
  _c1895
  _c190
  _c1935
  _c1939
  _c1948
  _c1957
  _c1976
  _c1986
  _c199
  _c1996
  _c2
  _c20
  _c2006
  _c201
  _c2016
  _c2021
  _c2039
  _c2048
  _c2077
  _c208
  _c2097
  _c210
  _c2103
  _c211
  _c2112
  _c2130
  _c2158
  _c217
  _c2178
  _c2185
  _c219
  _c2194
  _c220
  _c221
  _c2212
  _c2221
  _c2230
  _c2259
  _c226
  _c2267
  _c228
  _c229
  _c2294
  _c230
  _c231
  _c2340
  _c2349
  _c235
  _c2358
  _c2367
  _c2376
  _c238
  _c2385
  _c2394
  _c2403
  _c2412
  _c2423
  _c2424
  _c2425
  _c2426
  _c2427
  _c2428
  _c2429
  _c2430
  _c2431
  _c2432
  _c2433
  _c2434
  _c2435
  _c2436
  _c2437
  _c2438
  _c2439
  _c2440
  _c2450
  _c2451
  _c2452
  _c2453
  _c2454
  _c2455
  _c2456
  _c2457
  _c2458
  _c2468
  _c247
  _c2470
  _c2473
  _c2474
  _c2476
  _c2477
  _c2478
  _c2480
  _c2486
  _c2487
  _c2488
  _c2490
  _c2491
  _c2492
  _c2493
  _c2494
  _c2496
  _c2504
  _c2505
  _c2506
  _c2507
  _c2508
  _c2510
  _c2511
  _c2512
  _c2513
  _c2514
  _c2515
  _c2516
  _c2517
  _c2518
  _c2521
  _c2523
  _c2526
  _c2531
  _c2532
  _c2534
  _c2536
  _c2537
  _c2538
  _c262
  _c2702
  _c2703
  _c2704
  _c2705
  _c2706
  _c2707
  _c2708
  _c2709
  _c2710
  _c2715
  _c2716
  _c2717
  _c2718
  _c2719
  _c272
  _c2720
  _c2721
  _c2722
  _c2723
  _c2724
  _c2725
  _c2726
  _c2727
  _c2728
  _c2729
  _c2730
  _c2731
  _c2732
  _c2733
  _c2734
  _c2735
  _c2736
  _c2737
  _c2738
  _c2739
  _c274
  _c2740
  _c2741
  _c2742
  _c2743
  _c2744
  _c2745
  _c2746
  _c2747
  _c2748
  _c2749
  _c275
  _c276
  _c277
  _c279
  _c281
  _c29
  _c298
  _c299
  _c3
  _c30
  _c301
  _c308
  _c310
  _c317
  _c343
  _c345
  _c353
  _c361
  _c362
  _c363
  _c365
  _c366
  _c367
  _c368
  _c369
  _c38
  _c380
  _c381
  _c388
  _c389
  _c393
  _c399
  _c4
  _c40
  _c407
  _c411
  _c424
  _c426
  _c427
  _c456
  _c457
  _c459
  _c463
  _c472
  _c481
  _c499
  _c5
  _c50
  _c505
  _c507
  _c508
  _c509
  _c514
  _c515
  _c517
  _c524
  _c525
  _c535
  _c541
  _c542
  _c544
  _c547
  _c549
  _c553
  _c56
  _c568
  _c57
  _c570
  _c574
  _c575
  _c580
  _c582
  _c586
  _c588
  _c589
  _c590
  _c591
  _c596
  _c598
  _c6
  _c60
  _c604
  _c605
  _c609
  _c616
  _c625
  _c631
  _c632
  _c636
  _c639
  _c65
  _c653
  _c66
  _c667
  _c670
  _c677
  _c687
  _c697
  _c7
  _c70
  _c729
  _c735
  _c74
  _c745
  _c75
  _c751
  _c767
  _c771
  _c784
  _c786
  _c790
  _c791
  _c797
  _c8
  _c80
  _c807
  _c820
  _c821
  _c822
  _c823
  _c824
  _c825
  _c826
  _c827
  _c829
  _c830
  _c831
  _c832
  _c833
  _c834
  _c835
  _c838
  _c839
  _c840
  _c841
  _c842
  _c843
  _c847
  _c848
  _c849
  _c850
  _c851
  _c856
  _c857
  _c858
  _c859
  _c865
  _c866
  _c867
  _c875
  _c883
  _c898
  _c899
  _c9
  _c90
  _c900
  _c901
  _c902
  _c903
  _c904
  _c905
  _c906
  _c907
  _c908
  _c910
  _c911
  _c912
  _c913
  _c914
  _c915
  _c916
  _c919
  _c920
  _c921
  _c922
  _c923
  _c924
  _c929
  _c93
  _c931
  _c932
  _c937
  _c939
  _c94
  _c940
  _c947
  _c95
  _c955
  _c96
  _c964
  _c97
  _c98
  _c99 )
